 vasp.5.3.5 31Mar14 (build Nov 07 2014 11:36:17) complex

 executed on             LinuxIFC date 2015.10.15  01:05:32

 INCAR:
 POTCAR:    PAW_PBE Mg_pv 13Apr2007
 POTCAR:    PAW_PBE S 06Sep2000
 POTCAR:    PAW_PBE Mg_pv 13Apr2007
   VRHFIN =Mg: p6s2

   TITEL  = PAW_PBE Mg_pv 13Apr2007
   POMASS =   24.305; ZVAL   =    8.000    mass and valenz
   ENMAX  =  403.929; ENMIN  =  302.947 eV

 POTCAR:    PAW_PBE S 06Sep2000
   VRHFIN =S : s2p4

   TITEL  = PAW_PBE S 06Sep2000
   POMASS =   32.066; ZVAL   =    6.000    mass and valenz
   ENMAX  =  258.689; ENMIN  =  194.016 eV

  PAW_PBE Mg_pv 13Apr2007               :
  PAW_PBE S 06Sep2000                   :

 POSCAR:  Mg S
  positions in direct lattice
 exchange correlation table for  LEXCH =       14
   RHO(1)=    0.500       N(1)  =     2000
   RHO(2)=  100.500       N(2)  =     4000

 ion  position               nearest neighbor table
   1  0.000  0.000  0.000-   5 2.59   7 2.59   8 2.59   7 2.59   8 2.59   5 2.59
   2  0.000  0.500  0.500-   6 2.59   7 2.59   8 2.59   8 2.59   7 2.59   6 2.59
   3  0.500  0.000  0.500-   5 2.59   6 2.59   7 2.59   5 2.59   6 2.59   7 2.59
   4  0.500  0.500  0.000-   5 2.59   6 2.59   8 2.59   6 2.59   5 2.59   8 2.59
   5  0.500  0.000  0.000-   1 2.59   3 2.59   4 2.59   3 2.59   4 2.59   1 2.59
   6  0.500  0.500  0.500-   2 2.59   3 2.59   4 2.59   4 2.59   3 2.59   2 2.59
   7  0.000  0.000  0.500-   1 2.59   2 2.59   3 2.59   1 2.59   2 2.59   3 2.59
   8  0.000  0.500  0.000-   1 2.59   2 2.59   4 2.59   2 2.59   1 2.59   4 2.59

  LATTYP: Found a simple cubic cell.
 ALAT       =     5.1809728300

  Lattice vectors:

 A1 = (   5.1809728300,   0.0000000000,   0.0000000000)
 A2 = (   0.0000000000,   5.1809728300,   0.0000000000)
 A3 = (   0.0000000000,   0.0000000000,   5.1809728300)

Analysis of symmetry for initial positions (statically):
 Subroutine PRICEL returns following result:

  LATTYP: Found a face centered cubic cell.
 ALAT       =     5.1809728300

[...]

   4 primitive cells build up your supercell.

 Routine SETGRP: Setting up the symmetry group for a
 simple cubic supercell.

 Subroutine GETGRP returns: Found 48 space group operations
 (whereof 48 operations were pure point group operations)
 out of a pool of 48 trial point group operations.

The static configuration has the point symmetry O_h .

Analysis of symmetry for dynamics (positions and initial velocities):
 Subroutine PRICEL returns following result:

  LATTYP: Found a face centered cubic cell.
 ALAT       =     5.1809728300

  Lattice vectors:

 A1 = (   2.5904864150,   2.5904864150,   0.0000000000)
 A2 = (   2.5904864150,   0.0000000000,  -2.5904864150)
 A3 = (   0.0000000000,   2.5904864150,  -2.5904864150)

   4 primitive cells build up your supercell.

 Routine SETGRP: Setting up the symmetry group for a
 simple cubic supercell.

 Subroutine GETGRP returns: Found 48 space group operations
 (whereof 48 operations were pure point group operations)
 out of a pool of 48 trial point group operations.

The dynamic configuration has the point symmetry O_h .

 KPOINTS: Automatic mesh

Automatic generation of k-mesh.
Space group operators:
 irot       det(A)        alpha          n_x          n_y          n_z        tau_x        tau_y        tau_z
    1     1.000000     0.000000     1.000000     0.000000     0.000000     0.000000     0.000000     0.000000
    2    -1.000000     0.000000     1.000000     0.000000     0.000000     0.000000     0.000000     0.000000
    3     1.000000   120.000000    -0.577350    -0.577350    -0.577350     0.000000     0.000000     0.000000
    4    -1.000000   120.000000    -0.577350    -0.577350    -0.577350     0.000000     0.000000     0.000000
    5     1.000000   120.000000     0.577350     0.577350     0.577350     0.000000     0.000000     0.000000
    6    -1.000000   120.000000     0.577350     0.577350     0.577350     0.000000     0.000000     0.000000
    7     1.000000    90.000000     0.000000     0.000000    -1.000000     0.000000     0.000000     0.000000
    8    -1.000000    90.000000     0.000000     0.000000    -1.000000     0.000000     0.000000     0.000000
    9     1.000000   180.000000     0.000000     0.707107     0.707107     0.000000     0.000000     0.000000
   10    -1.000000   180.000000     0.000000     0.707107     0.707107     0.000000     0.000000     0.000000
   11     1.000000    90.000000     0.000000     1.000000     0.000000     0.000000     0.000000     0.000000
   12    -1.000000    90.000000     0.000000     1.000000     0.000000     0.000000     0.000000     0.000000
   13     1.000000   180.000000     0.000000     0.000000     1.000000     0.000000     0.000000     0.000000
   14    -1.000000   180.000000     0.000000     0.000000     1.000000     0.000000     0.000000     0.000000
   15     1.000000   120.000000    -0.577350     0.577350     0.577350     0.000000     0.000000     0.000000
   16    -1.000000   120.000000    -0.577350     0.577350     0.577350     0.000000     0.000000     0.000000
   17     1.000000   120.000000    -0.577350     0.577350    -0.577350     0.000000     0.000000     0.000000
   18    -1.000000   120.000000    -0.577350     0.577350    -0.577350     0.000000     0.000000     0.000000
   19     1.000000    90.000000     0.000000     0.000000     1.000000     0.000000     0.000000     0.000000
   20    -1.000000    90.000000     0.000000     0.000000     1.000000     0.000000     0.000000     0.000000
   21     1.000000    90.000000    -1.000000     0.000000     0.000000     0.000000     0.000000     0.000000
   22    -1.000000    90.000000    -1.000000     0.000000     0.000000     0.000000     0.000000     0.000000
   23     1.000000   180.000000     0.707107     0.000000     0.707107     0.000000     0.000000     0.000000
   24    -1.000000   180.000000     0.707107     0.000000     0.707107     0.000000     0.000000     0.000000
   25     1.000000   120.000000     0.577350    -0.577350     0.577350     0.000000     0.000000     0.000000
   26    -1.000000   120.000000     0.577350    -0.577350     0.577350     0.000000     0.000000     0.000000
   27     1.000000   120.000000    -0.577350    -0.577350     0.577350     0.000000     0.000000     0.000000
   28    -1.000000   120.000000    -0.577350    -0.577350     0.577350     0.000000     0.000000     0.000000
   29     1.000000   180.000000     1.000000     0.000000     0.000000     0.000000     0.000000     0.000000
   30    -1.000000   180.000000     1.000000     0.000000     0.000000     0.000000     0.000000     0.000000
   31     1.000000    90.000000     0.000000    -1.000000     0.000000     0.000000     0.000000     0.000000
   32    -1.000000    90.000000     0.000000    -1.000000     0.000000     0.000000     0.000000     0.000000
   33     1.000000   180.000000     0.707107     0.707107     0.000000     0.000000     0.000000     0.000000
   34    -1.000000   180.000000     0.707107     0.707107     0.000000     0.000000     0.000000     0.000000
   35     1.000000    90.000000     1.000000     0.000000     0.000000     0.000000     0.000000     0.000000
   36    -1.000000    90.000000     1.000000     0.000000     0.000000     0.000000     0.000000     0.000000
   37     1.000000   120.000000     0.577350    -0.577350    -0.577350     0.000000     0.000000     0.000000
   38    -1.000000   120.000000     0.577350    -0.577350    -0.577350     0.000000     0.000000     0.000000
   39     1.000000   180.000000     0.000000     1.000000     0.000000     0.000000     0.000000     0.000000
   40    -1.000000   180.000000     0.000000     1.000000     0.000000     0.000000     0.000000     0.000000
   41     1.000000   120.000000     0.577350     0.577350    -0.577350     0.000000     0.000000     0.000000
   42    -1.000000   120.000000     0.577350     0.577350    -0.577350     0.000000     0.000000     0.000000
   43     1.000000   180.000000     0.000000    -0.707107     0.707107     0.000000     0.000000     0.000000
   44    -1.000000   180.000000     0.000000    -0.707107     0.707107     0.000000     0.000000     0.000000
   45     1.000000   180.000000     0.707107    -0.707107     0.000000     0.000000     0.000000     0.000000
   46    -1.000000   180.000000     0.707107    -0.707107     0.000000     0.000000     0.000000     0.000000
   47     1.000000   180.000000     0.707107     0.000000    -0.707107     0.000000     0.000000     0.000000
   48    -1.000000   180.000000     0.707107     0.000000    -0.707107     0.000000     0.000000     0.000000

 Subroutine IBZKPT returns following result:

 Found     10 irreducible k-points:

 Following reciprocal coordinates:
            Coordinates               Weight
  0.000000  0.000000  0.000000      1.000000
  0.250000  0.000000  0.000000      6.000000
  0.500000  0.000000  0.000000      3.000000
  0.250000  0.250000  0.000000     12.000000
  0.500000  0.250000  0.000000     12.000000
  0.500000  0.500000  0.000000      3.000000
  0.250000  0.250000  0.250000      8.000000
  0.500000  0.250000  0.250000     12.000000
  0.500000  0.500000  0.250000      6.000000
  0.500000  0.500000  0.500000      1.000000

 Following cartesian coordinates:
            Coordinates               Weight
  0.000000  0.000000  0.000000      1.000000
  0.048253  0.000000  0.000000      6.000000
  0.096507  0.000000  0.000000      3.000000
  0.048253  0.048253  0.000000     12.000000
  0.096507  0.048253  0.000000     12.000000
  0.096507  0.096507  0.000000      3.000000
  0.048253  0.048253  0.048253      8.000000
  0.096507  0.048253  0.048253     12.000000
  0.096507  0.096507  0.048253      6.000000
  0.096507  0.096507  0.096507      1.000000

 I would recommend the setting:
   dimension x,y,z NGX =    39 NGY =   39 NGZ =   39
 SYSTEM =  unknown system
 POSCAR =   Mg S

 Startparameter for this run:
   NWRITE =      2    write-flag & timer
   PREC   = accura    normal or accurate (medium, high low for compatibility)
   ISTART =      0    job   : 0-new  1-cont  2-samecut
   ICHARG =      2    charge: 1-file 2-atom 10-const
   ISPIN  =      1    spin polarized calculation?
   LNONCOLLINEAR =      F non collinear calculations
   LSORBIT =      F    spin-orbit coupling
   INIWAV =      1    electr: 0-lowe 1-rand  2-diag
   LASPH  =      F    aspherical Exc in radial PAW
   METAGGA=      F    non-selfconsistent MetaGGA calc.

 Electronic Relaxation 1
   ENCUT  =  525.1 eV  38.59 Ry    6.21 a.u.   9.68  9.68  9.68*2*pi/ulx,y,z
   ENINI  =  525.1     initial cutoff
   ENAUG  =  758.8 eV  augmentation charge cutoff
   NELM   =     60;   NELMIN=  5; NELMDL= -5     # of ELM steps
   EDIFF  = 0.1E-07   stopping-criterion for ELM
   LREAL  =      F    real-space projection
   NLSPLINE    = F    spline interpolate recip. space projectors
   LCOMPAT=      F    compatible to vasp.4.4
   GGA_COMPAT  = T    GGA compatible to vasp.4.4-vasp.4.6
   LMAXPAW     = -100 max onsite density
   LMAXMIX     =    2 max onsite mixed and CHGCAR
   VOSKOWN=      0    Vosko Wilk Nusair interpolation
   ROPT   =    0.00000   0.00000
 Ionic relaxation
   EDIFFG = -.1E-07   stopping-criterion for IOM
   NSW    =     20    number of steps for IOM
[...]
   DEPER  =   0.30     relativ break condition

   TIME   =   0.40     timestep for ELM

  volume/ion in A,a.u.               =      17.38       117.31
  Fermi-wavevector in a.u.,A,eV,Ry     =   1.208907  2.284503 19.884315  1.461456
  Thomas-Fermi vector in A             =   2.344500

 Write flags
   LWAVE  =      F    write WAVECAR
   LCHARG =      F    write CHGCAR
   LVTOT  =      F    write LOCPOT, total local potential
   LVHAR  =      F    write LOCPOT, Hartree potential only
   LELF   =      F    write electronic localiz. function (ELF)
   LORBIT =      0    0 simple, 1 ext, 2 COOP (PROOUT)

 Dipole corrections
   LMONO  =      F    monopole corrections only (constant potential shift)
   LDIPOL =      F    correct potential (dipole corrections)
   IDIPOL =      0    1-x, 2-y, 3-z, 4-all directions
   EPSILON=  1.0000000 bulk dielectric constant

 Exchange correlation treatment:
   GGA     =    PS    GGA type
   VOSKOWN=      0    Vosko Wilk Nusair interpolation
   LHFCALC =     F    Hartree Fock is set to
   LHFONE  =     F    Hartree Fock one center treatment
   AEXX    =    0.0000 exact exchange contribution

 Linear response parameters
   LEPSILON=     F    determine dielectric tensor
   LRPA    =     F    only Hartree local field effects (RPA)
   LNABLA  =     F    use nabla operator in PAW spheres
   LVEL    =     F    velocity operator in full k-point grid
   LINTERFAST=   F  fast interpolation
   KINTER  =     0    interpolate to denser k-point grid
   CSHIFT  =0.1000    complex shift for real part using Kramers Kronig
   OMEGAMAX=  -1.0    maximum frequency
   DEG_THRESHOLD= 0.2000000E-02 threshold for treating states as degnerate
   RTIME   =    0.100 relaxation time in fs

 Orbital magnetization related:
   ORBITALMAG=     F  switch on orbital magnetization
   LCHIMAG   =     F  perturbation theory with respect to B field
   DQ        =  0.001000  dq finite difference perturbation B field

 conjugate gradient relaxation of ions
 charge density and potential will be updated during run
 non-spin polarized calculation
 Variant of blocked Davidson
 Davidson routine will perform the subspace rotation
 perform sub-space diagonalisation
    after iterative eigenvector-optimisation
 modified Broyden-mixing scheme, WC =      100.0
 initial mixing is a Kerker type mixing with AMIX =  0.4000 and BMIX =      1.0000
 Hartree-type preconditioning will be used
 using additional bands            8
 reciprocal scheme for non local part
 use partial core corrections
 calculate Harris-corrections to forces
   (improved forces if not selfconsistent)
 use gradient corrections
 use of overlap-Matrix (Vanderbilt PP)
 Gauss-broadening in eV      SIGMA  =   0.01

  energy-cutoff  :      525.11
  volume of cell :      139.07
      direct lattice vectors                 reciprocal lattice vectors
     5.180972830  0.000000000  0.000000000     0.193013944  0.000000000  0.000000000
     0.000000000  5.180972830  0.000000000     0.000000000  0.193013944  0.000000000
     0.000000000  0.000000000  5.180972830     0.000000000  0.000000000  0.193013944

  length of vectors
     5.180972830  5.180972830  5.180972830     0.193013944  0.193013944  0.193013944

 k-points in units of 2pi/SCALE and weight: Automatic mesh
   0.00000000  0.00000000  0.00000000       0.016
   0.04825349  0.00000000  0.00000000       0.094
   0.09650697  0.00000000  0.00000000       0.047
   0.04825349  0.04825349  0.00000000       0.188
   0.09650697  0.04825349  0.00000000       0.188
   0.09650697  0.09650697  0.00000000       0.047
   0.04825349  0.04825349  0.04825349       0.125
   0.09650697  0.04825349  0.04825349       0.188
   0.09650697  0.09650697  0.04825349       0.094
   0.09650697  0.09650697  0.09650697       0.016

 k-points in reciprocal lattice and weights: Automatic mesh
   0.00000000  0.00000000  0.00000000       0.016
   0.25000000  0.00000000  0.00000000       0.094
   0.50000000  0.00000000  0.00000000       0.047
   0.25000000  0.25000000  0.00000000       0.188
   0.50000000  0.25000000  0.00000000       0.188
   0.50000000  0.50000000  0.00000000       0.047
   0.25000000  0.25000000  0.25000000       0.125
   0.50000000  0.25000000  0.25000000       0.188
   0.50000000  0.50000000  0.25000000       0.094
   0.50000000  0.50000000  0.50000000       0.016

 position of ions in fractional coordinates (direct lattice)
   0.00000000  0.00000000  0.00000000
   0.00000000  0.50000000  0.50000000
   0.50000000  0.00000000  0.50000000
   0.50000000  0.50000000  0.00000000
   0.50000000  0.00000000  0.00000000
   0.50000000  0.50000000  0.50000000
   0.00000000  0.00000000  0.50000000
   0.00000000  0.50000000  0.00000000

 position of ions in cartesian coordinates  (Angst):
   0.00000000  0.00000000  0.00000000
   0.00000000  2.59048641  2.59048641
   2.59048641  0.00000000  2.59048641
   2.59048641  2.59048641  0.00000000
   2.59048641  0.00000000  0.00000000
   2.59048641  2.59048641  2.59048641
   0.00000000  0.00000000  2.59048641
   0.00000000  2.59048641  0.00000000

 k-point  1 :   0.0000 0.0000 0.0000  plane waves:    3791
 k-point  2 :   0.2500 0.0000 0.0000  plane waves:    3811
 k-point  3 :   0.5000 0.0000 0.0000  plane waves:    3804
 k-point  4 :   0.2500 0.2500 0.0000  plane waves:    3800
 k-point  5 :   0.5000 0.2500 0.0000  plane waves:    3782
 k-point  6 :   0.5000 0.5000 0.0000  plane waves:    3836
 k-point  7 :   0.2500 0.2500 0.2500  plane waves:    3824
 k-point  8 :   0.5000 0.2500 0.2500  plane waves:    3808
 k-point  9 :   0.5000 0.5000 0.2500  plane waves:    3792
 k-point 10 :   0.5000 0.5000 0.5000  plane waves:    3840

 maximum and minimum number of plane-waves per node :       782      740

 maximum number of plane-waves:      3840
 maximum index in each direction:
   IXMAX=    9   IYMAX=    9   IZMAX=    9
   IXMIN=  -10   IYMIN=  -10   IZMIN=  -10

 NGX is ok and might be reduce to  40
 NGY is ok and might be reduce to  40
 NGZ is ok and might be reduce to  40

 parallel 3D FFT for wavefunctions:
    minimum data exchange during FFTs selected (reduces bandwidth)
 parallel 3D FFT for charge:
    minimum data exchange during FFTs selected (reduces bandwidth)

 Broyden mixing: mesh for mixing (old mesh)
   NGX = 19   NGY = 19   NGZ = 19
  (NGX  = 80   NGY  = 80   NGZ  = 80)
  gives a total of   6859 points

 initial charge density was supplied:
 charge density of overlapping atoms calculated
 number of electron      56.0000000 magnetization
 keeping initial charge density in first step

 Maximum index for augmentation-charges         5931 (set IRDMAX)

 First call to EWALD:  gamma=   0.342
 Maximum number of real-space cells 3x 3x 3
 Maximum number of reciprocal cells 3x 3x 3

 FEWALD executed in parallel

----------------------------------------- Iteration    1(   1)  ---------------------------------------

 eigenvalue-minimisations  :   888
 total energy-change (2. order) : 0.4580119E+03  (-0.3469670E+04)
 number of electron      56.0000000 magnetization
 augmentation part       56.0000000 magnetization

 Free energy of the ion-electron system (eV)
  alpha Z        PSCENC =       152.67562175
  Ewald energy   TEWEN  =     -3130.11818085
  -Hartree energ DENC   =     -1164.30183299
  -exchange      EXHF   =         0.00000000
  -V(xc)+E(xc)   XCENC  =       159.38894108
  PAW double counting   =      3462.71711756    -3919.80126840
  entropy T*S    EENTRO =        -0.00070524
  eigenvalues    EBANDS =      -424.25317752
  atomic energy  EATOM  =      5321.70543053
  free energy    TOTEN  =       458.01194591 eV

  energy without entropy =      458.01265115  energy(sigma->0) =      458.01229853

[...]

 eigenvalue-minimisations  :   856
 total energy-change (2. order) :-0.4620801E+03  (-0.4495433E+03)
 number of electron      56.0000000 magnetization
 augmentation part       56.0000000 magnetization

[...]

 Broyden mixing:
  rms(total) = 0.85584E+00    rms(broyden)= 0.85578E+00
  rms(prec ) = 0.14216E+01
  weight for this iteration     100.00

[...]

 eigenvalues of (default mixing * dielectric matrix)
  average eigenvalue GAMMA=   2.0209
  2.0209

[...]

 eigenvalue-minimisations  :   708
 total energy-change (2. order) :-0.3738114E-07  (-0.1163301E-08)
 number of electron      56.0000000 magnetization
 augmentation part       13.4124226 magnetization

 Broyden mixing:
  rms(total) = 0.51815E-05    rms(broyden)= 0.51810E-05
  rms(prec ) = 0.55699E-05
  weight for this iteration     100.00

 eigenvalues of (default mixing * dielectric matrix)
  average eigenvalue GAMMA=   1.7130
  2.9357  2.6218  2.6147  2.0997  1.4310  1.2450  1.2450  1.0373  0.9988  0.9009

[...]

----------------------------------------- Iteration    1(  16)  ---------------------------------------

 eigenvalue-minimisations  :   432
 total energy-change (2. order) : 0.2308298E-08  (-0.1937870E-10)
 number of electron      56.0000000 magnetization
 augmentation part       13.4124226 magnetization

 Free energy of the ion-electron system (eV)
  alpha Z        PSCENC =       152.67562175
  Ewald energy   TEWEN  =     -3130.11818085
  -Hartree energ DENC   =     -1155.25498469
  -exchange      EXHF   =         0.00000000
  -V(xc)+E(xc)   XCENC  =       161.41006376
  PAW double counting   =      4678.48657502    -5131.47129373
  entropy T*S    EENTRO =         0.00000000
  eigenvalues    EBANDS =      -933.66174131
  atomic energy  EATOM  =      5321.70543053
  free energy    TOTEN  =       -36.22850952 eV

  energy without entropy =      -36.22850952  energy(sigma->0) =      -36.22850952

 average (electrostatic) potential at core
  the test charge radii are     0.8294  0.9698
  (the norm of the test charge is              1.0000)
       1 -42.5907       2 -42.5907       3 -42.5907       4 -42.5907       5 -86.3059
       6 -86.3059       7 -86.3059       8 -86.3059

 E-fermi :   3.6892     XC(G=0): -10.0700     alpha+bet :-10.6020

 k-point     1 :       0.0000    0.0000    0.0000
  band No.  band energies     occupation
      1     -37.6424      2.00000
      2     -37.6424      2.00000
      3     -37.6424      2.00000
      4     -37.6385      2.00000
      5     -37.6385      2.00000
      6     -37.6385      2.00000
      7     -37.6385      2.00000
      8     -37.6385      2.00000
      9     -37.6385      2.00000
     10     -37.6356      2.00000
     11     -37.6356      2.00000
     12     -37.6356      2.00000
     13      -9.1732      2.00000
     14      -7.4243      2.00000
     15      -7.4243      2.00000
     16      -7.4243      2.00000
     17      -0.7318      2.00000
     18      -0.7318      2.00000
     19      -0.7318      2.00000
     20       1.8539      2.00000
     21       1.8539      2.00000
     22       1.8539      2.00000
     23       1.8539      2.00000
     24       1.8539      2.00000
     25       1.8539      2.00000
     26       3.5878      2.00000
     27       3.5878      2.00000
     28       3.5878      2.00000
     29       6.3230      0.00000
     30       6.3230      0.00000
     31       6.3230      0.00000
     32       7.2837      0.00000
     33       7.7889      0.00000
     34       7.7889      0.00000
     35       7.7889      0.00000
     36      11.4311      0.00000

[...]

 k-point    10 :       0.5000    0.5000    0.5000
  band No.  band energies     occupation
      1     -37.6433      2.00000
      2     -37.6433      2.00000
      3     -37.6433      2.00000
      4     -37.6433      2.00000
      5     -37.6367      2.00000
      6     -37.6367      2.00000
      7     -37.6367      2.00000
      8     -37.6367      2.00000
      9     -37.6367      2.00000
     10     -37.6367      2.00000
     11     -37.6367      2.00000
     12     -37.6367      2.00000
     13      -7.8025      2.00000
     14      -7.8025      2.00000
     15      -7.8025      2.00000
     16      -7.8025      2.00000
     17      -1.3772      2.00000
     18      -1.3772      2.00000
     19      -1.3772      2.00000
     20      -1.3772      2.00000
     21       2.9718      2.00000
     22       2.9718      2.00000
     23       2.9718      2.00000
     24       2.9718      2.00000
     25       2.9718      2.00000
     26       2.9718      2.00000
     27       2.9718      2.00000
     28       2.9718      2.00000
     29       8.0075      0.00000
     30       8.0075      0.00000
     31       8.0075      0.00000
     32       8.0075      0.00000
     33      10.4316      0.00000
     34      10.4316      0.00000
     35      10.4316      0.00000
     36      10.4316      0.00000

 soft charge-density along one line, spin component           1
         0         1         2         3         4         5         6         7         8         9
 total charge-density along one line

------------------------ aborting loop because EDIFF is reached ----------------------------------------

  FORCE on cell =-STRESS in cart. coord.  units (eV):
  Direction    XX          YY          ZZ          XY          YZ          ZX
  Alpha Z   152.67562   152.67562   152.67562
  Ewald   -1043.37432 -1043.37432 -1043.37432     0.00000     0.00000     0.00000
  Hartree   385.08500   385.08500   385.08500     0.00000     0.00000     0.00000
  E(xc)    -264.99375  -264.99375  -264.99375     0.00000     0.00000     0.00000
  Local      -6.91036    -6.91036    -6.91036     0.00000     0.00000     0.00000
  n-local    36.89770    38.09609    36.35648    -1.33049    -1.21858    -0.50512
  augment    32.61481    32.61481    32.61479     0.00000    -0.00001    -0.00001
  Kinetic   699.77639   710.81878   712.76366    -2.84431    -2.80995    -1.12010
  Fock        0.00000     0.00000     0.00000     0.00000     0.00000     0.00000
  Total       0.00003     0.00003     0.00003     0.00000     0.00000     0.00000
  in kB       0.00040     0.00040     0.00040     0.00000     0.00000     0.00000

 VOLUME and BASIS-vectors are now :
  energy-cutoff  :      525.11
  volume of cell :      139.07
      direct lattice vectors                 reciprocal lattice vectors
     5.180972830  0.000000000  0.000000000     0.193013944  0.000000000  0.000000000
     0.000000000  5.180972830  0.000000000     0.000000000  0.193013944  0.000000000
     0.000000000  0.000000000  5.180972830     0.000000000  0.000000000  0.193013944

  length of vectors
     5.180972830  5.180972830  5.180972830     0.193013944  0.193013944  0.193013944

 FORCES acting on ions
    electron-ion (+dipol)            ewald-force                    non-local-force                 convergence-correction
   -.192E-13 -.214E-13 -.192E-13   0.824E-15 0.418E-15 -.812E-14   0.420E-25 0.258E-25 -.160E-25   -.944E-13 -.721E-13 -.811E-13
   -.193E-13 -.362E-13 -.369E-13   0.860E-15 0.736E-14 0.403E-15   -.258E-25 0.129E-25 -.129E-25   -.104E-12 0.570E-13 0.738E-13
   -.359E-13 -.206E-13 -.538E-12   0.612E-14 0.317E-14 0.442E-15   0.129E-25 -.194E-25 -.291E-25   0.593E-13 -.723E-13 0.846E-13
   -.371E-13 0.156E-11 -.278E-11   0.615E-14 0.101E-13 -.121E-14   0.129E-25 -.129E-25 -.258E-25   0.497E-13 0.549E-13 -.732E-13
   0.595E-13 0.580E-14 -.603E-13   -.186E-14 -.660E-14 0.144E-14   0.517E-24 -.103E-24 0.103E-24   0.416E-13 -.493E-13 -.570E-13
   0.613E-13 0.741E-12 0.657E-12   -.192E-14 -.354E-14 0.410E-14   -.775E-25 0.103E-24 0.103E-24   0.410E-13 0.380E-13 0.389E-13
   0.177E-13 0.196E-13 0.623E-13   -.556E-14 -.720E-14 0.414E-14   0.103E-24 -.103E-24 -.258E-25   -.524E-13 -.500E-13 0.412E-13
   0.177E-13 0.624E-13 0.233E-13   -.563E-14 -.414E-14 -.839E-15   0.103E-24 -.414E-24 -.517E-25   -.499E-13 0.368E-13 -.519E-13
   0.447E-13 0.231E-11 -.269E-11   -.101E-14 -.432E-15 0.357E-15   0.688E-24 -.511E-24 0.454E-25   -.110E-12 -.571E-13 -.247E-13

 POSITION                                       TOTAL-FORCE (eV/Angst)
      0.00000      0.00000      0.00000         0.000000      0.000000      0.000000
      0.00000      2.59049      2.59049         0.000000      0.000000      0.000000
      2.59049      0.00000      2.59049         0.000000      0.000000      0.000000
      2.59049      2.59049      0.00000         0.000000      0.000000      0.000000
      2.59049      0.00000      0.00000         0.000000      0.000000      0.000000
      2.59049      2.59049      2.59049         0.000000      0.000000      0.000000
      0.00000      0.00000      2.59049         0.000000      0.000000      0.000000
      0.00000      2.59049      0.00000         0.000000      0.000000      0.000000
    total drift:                                0.000000      0.000000      0.000000

  FREE ENERGIE OF THE ION-ELECTRON SYSTEM (eV)
  free  energy   TOTEN  =       -36.22850952 eV

  energy  without entropy=      -36.22850952  energy(sigma->0) =      -36.22850952

 reached required accuracy - stopping structural energy minimisation