 vasp.5.3.5 31Mar14 (build Nov 07 2014 11:36:17) complex

 executed on             LinuxIFC date 2015.10.15  02:20:00

 INCAR:
 POTCAR:    PAW_PBE Mg_pv 13Apr2007
 POTCAR:    PAW_PBE S 06Sep2000
 POTCAR:    PAW_PBE Mg_pv 13Apr2007
   VRHFIN =Mg: p6s2

   TITEL  = PAW_PBE Mg_pv 13Apr2007
   POMASS =   24.305; ZVAL   =    8.000    mass and valenz
   ENMAX  =  403.929; ENMIN  =  302.947 eV

 POTCAR:    PAW_PBE S 06Sep2000
   VRHFIN =S : s2p4

   TITEL  = PAW_PBE S 06Sep2000
   POMASS =   32.066; ZVAL   =    6.000    mass and valenz
   ENMAX  =  258.689; ENMIN  =  194.016 eV

  PAW_PBE Mg_pv 13Apr2007               :
  PAW_PBE S 06Sep2000                   :

 POSCAR:  Mg S
  positions in direct lattice
 exchange correlation table for  LEXCH =       14
   RHO(1)=    0.500       N(1)  =     2000
   RHO(2)=  100.500       N(2)  =     4000

 ion  position               nearest neighbor table
   1  0.000  0.000  0.000-  34 2.58  49 2.58  53 2.58  57 2.58  59 2.58  33 2.59
   2  0.500  0.000  0.000-  33 2.57  34 2.58  50 2.58  54 2.58  58 2.58  60 2.58
   3  0.000  0.500  0.000-  35 2.58  36 2.58  51 2.58  55 2.58  57 2.58  59 2.58
   4  0.500  0.500  0.000-  35 2.58  36 2.58  52 2.58  56 2.58  58 2.58  60 2.58
   5  0.000  0.000  0.500-  37 2.58  38 2.58  49 2.58  53 2.58  61 2.58  63 2.58
   6  0.500  0.000  0.500-  37 2.58  38 2.58  50 2.58  54 2.58  62 2.58  64 2.58
   7  0.000  0.500  0.500-  39 2.58  40 2.58  51 2.58  55 2.58  61 2.58  63 2.58
   8  0.500  0.500  0.500-  39 2.58  40 2.58  52 2.58  56 2.58  62 2.58  64 2.58
   9  0.000  0.250  0.250-  41 2.58  42 2.58  49 2.58  51 2.58  57 2.58  61 2.58
  10  0.500  0.250  0.250-  41 2.58  42 2.58  50 2.58  52 2.58  58 2.58  62 2.58
  11  0.000  0.750  0.250-  43 2.58  44 2.58  49 2.58  51 2.58  59 2.58  63 2.58
  12  0.500  0.750  0.250-  43 2.58  44 2.58  50 2.58  52 2.58  60 2.58  64 2.58
  13  0.000  0.250  0.750-  45 2.58  46 2.58  53 2.58  55 2.58  57 2.58  61 2.58
  14  0.500  0.250  0.750-  45 2.58  46 2.58  54 2.58  56 2.58  58 2.58  62 2.58
  15  0.000  0.750  0.750-  47 2.58  48 2.58  53 2.58  55 2.58  59 2.58  63 2.58
  16  0.500  0.750  0.750-  47 2.58  48 2.58  54 2.58  56 2.58  60 2.58  64 2.58
  17  0.250  0.000  0.250-  37 2.58  41 2.58  43 2.58  49 2.58  50 2.58  33 2.58
  18  0.750  0.000  0.250-  34 2.58  38 2.58  42 2.58  44 2.58  49 2.58  50 2.58
  19  0.250  0.500  0.250-  35 2.58  39 2.58  41 2.58  43 2.58  51 2.58  52 2.58
  20  0.750  0.500  0.250-  36 2.58  40 2.58  42 2.58  44 2.58  51 2.58  52 2.58
  21  0.250  0.000  0.750-  37 2.58  45 2.58  47 2.58  53 2.58  54 2.58  33 2.58
  22  0.750  0.000  0.750-  34 2.58  38 2.58  46 2.58  48 2.58  53 2.58  54 2.58
  23  0.250  0.500  0.750-  35 2.58  39 2.58  45 2.58  47 2.58  55 2.58  56 2.58
  24  0.750  0.500  0.750-  36 2.58  40 2.58  46 2.58  48 2.58  55 2.58  56 2.58
  25  0.250  0.250  0.000-  35 2.58  41 2.58  45 2.58  57 2.58  58 2.58  33 2.58
  26  0.750  0.250  0.000-  34 2.58  36 2.58  42 2.58  46 2.58  57 2.58  58 2.58
  27  0.250  0.750  0.000-  35 2.58  43 2.58  47 2.58  59 2.58  60 2.58  33 2.58
  28  0.750  0.750  0.000-  34 2.58  36 2.58  44 2.58  48 2.58  59 2.58  60 2.58
  29  0.250  0.250  0.500-  37 2.58  39 2.58  41 2.58  45 2.58  61 2.58  62 2.58
  30  0.750  0.250  0.500-  38 2.58  40 2.58  42 2.58  46 2.58  61 2.58  62 2.58
  31  0.250  0.750  0.500-  37 2.58  39 2.58  43 2.58  47 2.58  63 2.58  64 2.58
  32  0.750  0.750  0.500-  38 2.58  40 2.58  44 2.58  48 2.58  63 2.58  64 2.58
  33  0.251  0.000  0.000-   2 2.57  17 2.58  21 2.58  25 2.58  27 2.58   1 2.59
  34  0.750  0.000  0.000-   1 2.58   2 2.58  18 2.58  22 2.58  26 2.58  28 2.58
  35  0.250  0.500  0.000-   3 2.58   4 2.58  19 2.58  23 2.58  25 2.58  27 2.58
  36  0.750  0.500  0.000-   3 2.58   4 2.58  20 2.58  24 2.58  26 2.58  28 2.58
  37  0.250  0.000  0.500-   5 2.58   6 2.58  17 2.58  21 2.58  29 2.58  31 2.58
  38  0.750  0.000  0.500-   5 2.58   6 2.58  18 2.58  22 2.58  30 2.58  32 2.58
  39  0.250  0.500  0.500-   7 2.58   8 2.58  19 2.58  23 2.58  29 2.58  31 2.58
  40  0.750  0.500  0.500-   7 2.58   8 2.58  20 2.58  24 2.58  30 2.58  32 2.58
  41  0.250  0.250  0.250-   9 2.58  10 2.58  17 2.58  19 2.58  25 2.58  29 2.58
  42  0.750  0.250  0.250-   9 2.58  10 2.58  18 2.58  20 2.58  26 2.58  30 2.58
  43  0.250  0.750  0.250-  11 2.58  12 2.58  17 2.58  19 2.58  27 2.58  31 2.58
  44  0.750  0.750  0.250-  11 2.58  12 2.58  18 2.58  20 2.58  28 2.58  32 2.58
  45  0.250  0.250  0.750-  13 2.58  14 2.58  21 2.58  23 2.58  25 2.58  29 2.58
  46  0.750  0.250  0.750-  13 2.58  14 2.58  22 2.58  24 2.58  26 2.58  30 2.58
  47  0.250  0.750  0.750-  15 2.58  16 2.58  21 2.58  23 2.58  27 2.58  31 2.58
  48  0.750  0.750  0.750-  15 2.58  16 2.58  22 2.58  24 2.58  28 2.58  32 2.58
  49  0.000  0.000  0.250-   1 2.58   5 2.58   9 2.58  11 2.58  17 2.58  18 2.58
  50  0.500  0.000  0.250-   2 2.58   6 2.58  10 2.58  12 2.58  17 2.58  18 2.58
  51  0.000  0.500  0.250-   3 2.58   7 2.58   9 2.58  11 2.58  19 2.58  20 2.58
  52  0.500  0.500  0.250-   4 2.58   8 2.58  10 2.58  12 2.58  19 2.58  20 2.58
  53  0.000  0.000  0.750-   1 2.58   5 2.58  13 2.58  15 2.58  21 2.58  22 2.58
  54  0.500  0.000  0.750-   2 2.58   6 2.58  14 2.58  16 2.58  21 2.58  22 2.58
  55  0.000  0.500  0.750-   3 2.58   7 2.58  13 2.58  15 2.58  23 2.58  24 2.58
  56  0.500  0.500  0.750-   4 2.58   8 2.58  14 2.58  16 2.58  23 2.58  24 2.58
  57  0.000  0.250  0.000-   1 2.58   3 2.58   9 2.58  13 2.58  25 2.58  26 2.58
  58  0.500  0.250  0.000-   2 2.58   4 2.58  10 2.58  14 2.58  25 2.58  26 2.58
  59  0.000  0.750  0.000-   1 2.58   3 2.58  11 2.58  15 2.58  27 2.58  28 2.58
  60  0.500  0.750  0.000-   2 2.58   4 2.58  12 2.58  16 2.58  27 2.58  28 2.58
  61  0.000  0.250  0.500-   5 2.58   7 2.58   9 2.58  13 2.58  29 2.58  30 2.58
  62  0.500  0.250  0.500-   6 2.58   8 2.58  10 2.58  14 2.58  29 2.58  30 2.58
  63  0.000  0.750  0.500-   5 2.58   7 2.58  11 2.58  15 2.58  31 2.58  32 2.58
  64  0.500  0.750  0.500-   6 2.58   8 2.58  12 2.58  16 2.58  31 2.58  32 2.58

  LATTYP: Found a simple cubic cell.
 ALAT       =    10.3272900600

  Lattice vectors:

 A1 = (  10.3272900600,   0.0000000000,   0.0000000000)
 A2 = (   0.0000000000,  10.3272900600,   0.0000000000)
 A3 = (   0.0000000000,   0.0000000000,  10.3272900600)

Analysis of symmetry for initial positions (statically):
 Subroutine PRICEL returns:
 Original cell was already a primitive cell.

 Routine SETGRP: Setting up the symmetry group for a
 simple cubic supercell.

 Subroutine GETGRP returns: Found  8 space group operations
 (whereof  8 operations were pure point group operations)
 out of a pool of 48 trial point group operations.

The static configuration has the point symmetry C_4v.

Analysis of symmetry for dynamics (positions and initial velocities):
 Subroutine PRICEL returns:
 Original cell was already a primitive cell.

 Routine SETGRP: Setting up the symmetry group for a
 simple cubic supercell.

 Subroutine GETGRP returns: Found  8 space group operations
 (whereof  8 operations were pure point group operations)
 out of a pool of 48 trial point group operations.

The dynamic configuration has the point symmetry C_4v.

 KPOINTS: Automatic mesh

Automatic generation of k-mesh.
Space group operators:
 irot       det(A)        alpha          n_x          n_y          n_z        tau_x        tau_y        tau_z
    1     1.000000     0.000000     1.000000     0.000000     0.000000     0.000000     0.000000     0.000000
    2    -1.000000   180.000000     0.000000     0.707107     0.707107     0.000000     0.000000     0.000000
    3    -1.000000   179.999999     0.000000     0.000000     1.000000     0.000000     0.000000     0.000000
    4     1.000000    90.000000    -1.000000     0.000000     0.000000     0.000000     0.000000     0.000000
    5     1.000000   180.000000     1.000000     0.000000     0.000000     0.000000     0.000000     0.000000
    6     1.000000    90.000000     1.000000     0.000000     0.000000     0.000000     0.000000     0.000000
    7    -1.000000   180.000000     0.000000     1.000000     0.000000     0.000000     0.000000     0.000000
    8    -1.000000   180.000000     0.000000    -0.707107     0.707107     0.000000     0.000000     0.000000

 Subroutine IBZKPT returns following result:

 Found      6 irreducible k-points:

 Following reciprocal coordinates:
            Coordinates               Weight
  0.000000  0.000000  0.000000      1.000000
  0.500000  0.000000  0.000000      1.000000
  0.000000  0.500000  0.000000      2.000000
  0.500000  0.500000  0.000000      2.000000
  0.000000  0.500000  0.500000      1.000000
  0.500000  0.500000  0.500000      1.000000

 Following cartesian coordinates:
            Coordinates               Weight
  0.000000  0.000000  0.000000      1.000000
  0.048415  0.000000  0.000000      1.000000
  0.000000  0.048415  0.000000      2.000000
  0.048415  0.048415  0.000000      2.000000
  0.000000  0.048415  0.048415      1.000000
  0.048415  0.048415  0.048415      1.000000

 I would recommend the setting:
   dimension x,y,z NGX =    77 NGY =   77 NGZ =   77
 SYSTEM =  unknown system
 POSCAR =   Mg S

 Startparameter for this run:
   NWRITE =      2    write-flag & timer
   PREC   = accura    normal or accurate (medium, high low for compatibility)
   ISTART =      0    job   : 0-new  1-cont  2-samecut
   ICHARG =      2    charge: 1-file 2-atom 10-const
   ISPIN  =      1    spin polarized calculation?
   LNONCOLLINEAR =      F non collinear calculations
   LSORBIT =      F    spin-orbit coupling
   INIWAV =      1    electr: 0-lowe 1-rand  2-diag
   LASPH  =      F    aspherical Exc in radial PAW
   METAGGA=      F    non-selfconsistent MetaGGA calc.

 Electronic Relaxation 1
   ENCUT  =  525.1 eV  38.59 Ry    6.21 a.u.  19.30 19.30 19.30*2*pi/ulx,y,z
   ENINI  =  525.1     initial cutoff
   ENAUG  =  758.8 eV  augmentation charge cutoff
   NELM   =     60;   NELMIN=  5; NELMDL= -5     # of ELM steps
   EDIFF  = 0.1E-07   stopping-criterion for ELM
   LREAL  =      F    real-space projection
   NLSPLINE    = F    spline interpolate recip. space projectors
   LCOMPAT=      F    compatible to vasp.4.4
   GGA_COMPAT  = T    GGA compatible to vasp.4.4-vasp.4.6
   LMAXPAW     = -100 max onsite density
   LMAXMIX     =    2 max onsite mixed and CHGCAR
   VOSKOWN=      0    Vosko Wilk Nusair interpolation
   ROPT   =    0.00000   0.00000
 Ionic relaxation
   EDIFFG = 0.1E-06   stopping-criterion for IOM
   NSW    =      0    number of steps for IOM
   NBLOCK =      1;   KBLOCK =      1    inner block; outer block
   IBRION =     -1    ionic relax: 0-MD 1-quasi-New 2-CG
   NFREE  =      0    steps in history (QN), initial steepest desc. (CG)
   ISIF   =      2    stress and relaxation
   IWAVPR =     10    prediction:  0-non 1-charg 2-wave 3-comb
   ISYM   =      2    0-nonsym 1-usesym 2-fastsym
   LCORR  =      T    Harris-Foulkes like correction to forces

   POTIM  = 0.5000    time-step for ionic-motion
   TEIN   =    0.0    initial temperature
   TEBEG  =    0.0;   TEEND  =   0.0 temperature during run
   SMASS  =  -3.00    Nose mass-parameter (am)
[...]
     58     -37.5284      2.00000
     59     -37.5284      2.00000
     60     -37.5284      2.00000
[...]
    254       8.5907      0.00000
    255       8.5907      0.00000
    256       8.5913      0.00000
    257      10.3646      0.00000
    258      10.3657      0.00000
    259      10.3664      0.00000
    260      10.3684      0.00000
    261      10.3686      0.00000
    262      10.3688      0.00000
    263      10.3690      0.00000
    264      10.3690      0.00000
    265      10.3692      0.00000
    266      10.3697      0.00000
    267      10.3715      0.00000
    268      10.3722      0.00000

 soft charge-density along one line, spin component           1
         0         1         2         3         4         5         6         7         8         9
 total charge-density along one line

------------------------ aborting loop because EDIFF is reached ----------------------------------------

  FORCE on cell =-STRESS in cart. coord.  units (eV):
  Direction    XX          YY          ZZ          XY          YZ          ZX
  Alpha Z  1233.74240  1233.74240  1233.74240
  Ewald   -8375.02515 -8375.04811 -8375.04811     0.00000     0.00000     0.00000
  Hartree  3069.02624  3069.02103  3069.02103     0.00000     0.00000     0.00000
  E(xc)   -2121.24565 -2121.24563 -2121.24563     0.00000     0.00000     0.00000
  Local     -29.82833   -29.80203   -29.80203     0.00000     0.00000     0.00000
  n-local   299.98322   299.79591   300.16768     0.00000     0.00000     0.00000
  augment   260.68740   260.68747   260.68731     0.00000    -0.00005    -0.00005
  Kinetic  5668.19005  5668.58578  5667.79547     0.00000     0.00000     0.00000
  Fock        0.00000     0.00000     0.00000     0.00000     0.00000     0.00000
  Total       5.53018     5.52748     5.52748     0.00000     0.00000     0.00000
  in kB       8.04435     8.04041     8.04041     0.00000     0.00000     0.00000

 VOLUME and BASIS-vectors are now :
  energy-cutoff  :      525.11
  volume of cell :     1101.44
      direct lattice vectors                 reciprocal lattice vectors
    10.327290060  0.000000000  0.000000000     0.096830823  0.000000000  0.000000000
     0.000000000 10.327290060  0.000000000     0.000000000  0.096830823  0.000000000
     0.000000000  0.000000000 10.327290060     0.000000000  0.000000000  0.096830823

  length of vectors
    10.327290060 10.327290060 10.327290060     0.096830823  0.096830823  0.096830823

 FORCES acting on ions
    electron-ion (+dipol)            ewald-force                    non-local-force                 convergence-correction
   -.921E+00 -.952E-14 0.441E-07   0.840E+00 0.444E-14 0.978E-14   0.953E-01 0.414E-24 -.103E-24   -.277E-06 0.100E-12 0.352E-13
   -.930E+00 0.191E-13 0.442E-07   0.850E+00 -.409E-13 0.534E-14   0.964E-01 0.000E+00 -.129E-24   0.364E-06 0.103E-12 -.330E-13
   -.609E-02 -.284E-13 0.106E-10   0.741E-02 -.187E-13 -.887E-14   -.851E-03 -.129E-25 0.129E-25   0.276E-06 -.235E-12 0.455E-13
   -.571E-02 -.469E-11 0.139E-10   0.705E-02 -.178E-14 0.139E-16   -.865E-03 -.258E-25 0.000E+00   -.556E-07 -.252E-12 -.984E-14
   -.609E-02 -.186E-13 -.223E-12   0.741E-02 -.107E-13 -.238E-13   -.851E-03 0.000E+00 0.258E-25   0.276E-06 0.971E-13 -.190E-12
   -.571E-02 -.177E-13 -.203E-11   0.705E-02 -.142E-13 0.242E-13   -.865E-03 0.646E-26 -.129E-25   -.556E-07 0.893E-13 -.165E-12
   -.990E-03 -.187E-13 -.245E-12   0.992E-03 -.195E-13 -.326E-13   -.778E-05 0.258E-25 0.000E+00   -.329E-06 -.240E-12 -.193E-12
   -.824E-03 -.618E-11 0.293E-11   0.827E-03 0.000E+00 -.131E-13   -.953E-05 0.517E-25 0.000E+00   0.405E-06 -.242E-12 -.165E-12
   -.268E-01 0.708E-01 0.708E-01   0.265E-01 -.665E-01 -.665E-01   0.272E-03 -.327E-02 -.327E-02   0.357E-07 -.450E-06 -.450E-06
   -.263E-01 -.710E-01 -.710E-01   0.260E-01 0.668E-01 0.668E-01   0.267E-03 0.327E-02 0.327E-02   0.445E-08 0.119E-06 0.119E-06
   -.268E-01 -.708E-01 0.708E-01   0.265E-01 0.665E-01 -.665E-01   0.272E-03 0.327E-02 -.327E-02   0.357E-07 0.450E-06 -.450E-06
   -.263E-01 0.710E-01 -.710E-01   0.260E-01 -.668E-01 0.668E-01   0.267E-03 -.327E-02 0.327E-02   0.445E-08 -.119E-06 0.119E-06
   -.268E-01 0.708E-01 -.708E-01   0.265E-01 -.665E-01 0.665E-01   0.272E-03 -.327E-02 0.327E-02   0.357E-07 -.450E-06 0.450E-06
   -.263E-01 -.710E-01 0.710E-01   0.260E-01 0.668E-01 -.668E-01   0.267E-03 0.327E-02 -.327E-02   0.445E-08 0.119E-06 -.119E-06
   -.268E-01 -.708E-01 -.708E-01   0.265E-01 0.665E-01 0.665E-01   0.272E-03 0.327E-02 0.327E-02   0.357E-07 0.450E-06 0.450E-06
   -.263E-01 0.710E-01 0.710E-01   0.260E-01 -.668E-01 -.668E-01   0.267E-03 -.327E-02 -.327E-02   0.445E-08 -.119E-06 -.119E-06
   0.401E+00 -.270E-13 0.234E-02   -.383E+00 0.124E-13 -.230E-02   -.149E-01 0.129E-25 -.720E-04   -.992E-06 0.780E-13 0.624E-07
   -.130E+00 -.163E-13 -.233E-03   0.117E+00 0.124E-13 0.238E-03   0.101E-01 0.000E+00 -.453E-05   0.855E-06 0.801E-13 -.422E-06
   0.472E-01 -.115E-12 0.587E-04   -.456E-01 0.711E-14 -.600E-04   -.119E-02 -.258E-25 0.136E-05   -.433E-06 -.225E-12 -.462E-06
   -.407E-01 -.103E-12 -.439E-04   0.390E-01 0.213E-13 0.412E-04   0.135E-02 0.000E+00 0.204E-05   0.333E-06 -.202E-12 0.179E-07
   0.401E+00 -.177E-13 -.234E-02   -.383E+00 0.266E-13 0.230E-02   -.149E-01 -.258E-25 0.720E-04   -.992E-06 0.903E-13 -.624E-07
   -.130E+00 -.289E-13 0.233E-03   0.117E+00 -.178E-14 -.238E-03   0.101E-01 0.000E+00 0.453E-05   0.855E-06 0.109E-12 0.422E-06
   0.472E-01 0.181E-11 -.587E-04   -.456E-01 0.888E-14 0.600E-04   -.119E-02 0.129E-25 -.136E-05   -.433E-06 -.241E-12 0.462E-06
   -.407E-01 -.771E-11 0.439E-04   0.390E-01 0.888E-14 -.412E-04   0.135E-02 0.258E-25 -.204E-05   0.333E-06 -.232E-12 -.179E-07
   0.401E+00 0.234E-02 0.484E-10   -.383E+00 -.230E-02 -.176E-14   -.149E-01 -.720E-04 0.517E-25   -.992E-06 0.624E-07 -.937E-14
   -.130E+00 -.233E-03 0.422E-10   0.117E+00 0.238E-03 -.337E-13   0.101E-01 -.453E-05 0.889E-26   0.855E-06 -.422E-06 0.284E-14
   0.401E+00 -.234E-02 0.471E-10   -.383E+00 0.230E-02 -.337E-13   -.149E-01 0.720E-04 -.258E-25   -.992E-06 -.624E-07 0.366E-14
   -.130E+00 0.233E-03 0.482E-10   0.117E+00 -.238E-03 -.266E-13   0.101E-01 0.453E-05 0.000E+00   0.855E-06 0.422E-06 0.259E-13
   0.472E-01 0.587E-04 -.243E-12   -.456E-01 -.600E-04 -.380E-13   -.119E-02 0.136E-05 0.000E+00   -.433E-06 -.462E-06 -.152E-12
   -.407E-01 -.439E-04 -.623E-11   0.390E-01 0.412E-04 -.202E-13   0.135E-02 0.204E-05 0.646E-26   0.333E-06 0.179E-07 -.169E-12
   0.472E-01 -.587E-04 0.458E-12   -.456E-01 0.600E-04 -.220E-13   -.119E-02 -.136E-05 0.258E-25   -.433E-06 0.462E-06 -.169E-12
   -.407E-01 0.439E-04 -.765E-11   0.390E-01 -.412E-04 -.291E-13   0.135E-02 -.204E-05 0.000E+00   0.333E-06 -.179E-07 -.212E-12
   0.151E+01 0.385E-13 0.736E-06   -.145E+01 0.249E-13 0.172E-14   -.121E+00 0.000E+00 -.207E-24   -.263E-06 0.976E-13 0.339E-13
   -.163E+00 0.623E-13 0.113E-06   0.161E+00 0.000E+00 0.347E-14   0.430E-02 -.207E-24 0.905E-25   0.447E-07 0.109E-12 0.452E-13
   0.521E-01 0.440E-11 -.131E-10   -.511E-01 -.142E-13 -.815E-16   -.223E-02 0.620E-24 -.103E-24   -.271E-06 -.183E-12 0.417E-13
   -.426E-01 -.474E-11 -.220E-10   0.401E-01 -.142E-13 -.143E-13   0.543E-02 0.000E+00 -.162E-26   0.284E-06 -.187E-12 0.561E-13
   0.521E-01 0.289E-13 -.475E-09   -.511E-01 0.000E+00 -.991E-14   -.223E-02 0.000E+00 0.207E-24   -.271E-06 0.103E-12 -.124E-12
   -.426E-01 0.421E-13 -.489E-09   0.401E-01 0.000E+00 -.281E-14   0.543E-02 0.323E-26 0.258E-25   0.284E-06 0.103E-12 -.122E-12
   0.215E-01 0.100E-11 0.642E-12   -.211E-01 -.142E-13 0.785E-14   -.956E-03 0.129E-25 0.000E+00   -.173E-06 -.189E-12 -.123E-12
   -.201E-01 -.178E-11 -.140E-11   0.197E-01 0.000E+00 0.221E-13   0.867E-03 0.000E+00 0.000E+00   0.181E-06 -.181E-12 -.135E-12
   0.977E-01 0.295E-03 0.295E-03   -.963E-01 -.293E-03 -.293E-03   -.279E-02 -.539E-05 -.539E-05   -.128E-06 -.808E-07 -.808E-07
   -.551E-01 -.860E-04 -.860E-04   0.542E-01 0.879E-04 0.879E-04   0.203E-02 -.206E-05 -.206E-05   0.245E-06 -.136E-06 -.136E-06
   0.977E-01 -.295E-03 0.295E-03   -.963E-01 0.293E-03 -.293E-03   -.279E-02 0.539E-05 -.539E-05   -.128E-06 0.808E-07 -.808E-07
   -.551E-01 0.860E-04 -.860E-04   0.542E-01 -.879E-04 0.879E-04   0.203E-02 0.206E-05 -.206E-05   0.245E-06 0.136E-06 -.136E-06
   0.977E-01 0.295E-03 -.295E-03   -.963E-01 -.293E-03 0.293E-03   -.279E-02 -.539E-05 0.539E-05   -.128E-06 -.808E-07 0.808E-07
   -.551E-01 -.860E-04 0.860E-04   0.542E-01 0.879E-04 -.879E-04   0.203E-02 -.206E-05 0.206E-05   0.245E-06 -.136E-06 0.136E-06
   0.977E-01 -.295E-03 -.295E-03   -.963E-01 0.293E-03 0.293E-03   -.279E-02 0.539E-05 0.539E-05   -.128E-06 0.808E-07 0.808E-07
   -.551E-01 0.860E-04 0.860E-04   0.542E-01 -.879E-04 -.879E-04   0.203E-02 0.206E-05 0.206E-05   0.245E-06 0.136E-06 0.136E-06
   -.818E-01 0.394E-13 0.152E+00   0.779E-01 0.195E-13 -.148E+00   0.769E-02 -.724E-24 -.104E-01   -.167E-06 0.952E-13 0.321E-07
   -.814E-01 0.310E-13 -.153E+00   0.776E-01 0.213E-13 0.149E+00   0.771E-02 0.000E+00 0.104E-01   -.451E-09 0.982E-13 -.174E-06
   -.255E-02 0.128E-12 0.126E-01   0.257E-02 0.187E-13 -.122E-01   -.767E-04 0.310E-24 -.916E-03   0.372E-07 -.177E-12 -.109E-06
   -.236E-02 -.889E-12 -.126E-01   0.238E-02 0.249E-13 0.122E-01   -.804E-04 0.000E+00 0.918E-03   -.752E-07 -.182E-12 -.689E-07
   -.818E-01 0.283E-13 -.152E+00   0.779E-01 0.195E-13 0.148E+00   0.769E-02 -.310E-24 0.104E-01   -.167E-06 0.112E-12 -.321E-07
   -.814E-01 0.317E-13 0.153E+00   0.776E-01 0.178E-13 -.149E+00   0.771E-02 0.207E-24 -.104E-01   -.451E-09 0.109E-12 0.174E-06
   -.255E-02 0.223E-13 -.126E-01   0.257E-02 0.240E-13 0.122E-01   -.767E-04 -.414E-24 0.916E-03   0.372E-07 -.193E-12 0.109E-06
   -.236E-02 -.572E-11 0.126E-01   0.238E-02 0.249E-13 -.122E-01   -.804E-04 0.517E-25 -.918E-03   -.752E-07 -.193E-12 0.689E-07
   -.818E-01 0.152E+00 -.516E-10   0.779E-01 -.148E+00 0.353E-13   0.769E-02 -.104E-01 0.000E+00   -.167E-06 0.321E-07 0.475E-13
   -.814E-01 -.153E+00 -.471E-10   0.776E-01 0.149E+00 0.131E-13   0.771E-02 0.104E-01 0.207E-24   -.451E-09 -.174E-06 0.257E-13
   -.818E-01 -.152E+00 -.516E-10   0.779E-01 0.148E+00 0.229E-13   0.769E-02 0.104E-01 0.000E+00   -.167E-06 -.321E-07 0.671E-13
   -.814E-01 0.153E+00 -.426E-10   0.776E-01 -.149E+00 0.956E-14   0.771E-02 -.104E-01 0.000E+00   -.451E-09 0.174E-06 0.371E-13
   -.255E-02 0.126E-01 0.585E-12   0.257E-02 -.122E-01 0.118E-13   -.767E-04 -.916E-03 -.103E-24   0.372E-07 -.109E-06 -.137E-12
   -.236E-02 -.126E-01 0.129E-11   0.238E-02 0.122E-01 0.153E-13   -.804E-04 0.918E-03 0.258E-25   -.752E-07 -.689E-07 -.105E-12
   -.255E-02 -.126E-01 0.482E-12   0.257E-02 0.122E-01 0.233E-13   -.767E-04 0.916E-03 -.103E-24   0.372E-07 0.109E-06 -.152E-12
   -.236E-02 0.126E-01 0.151E-12   0.238E-02 -.122E-01 0.260E-13   -.804E-04 -.918E-03 0.000E+00   -.752E-07 0.689E-07 -.116E-12
   -.119E+00 -.235E-10 0.935E-06   0.136E-13 -.159E-13 0.153E-13   0.119E+00 0.000E+00 -.217E-17   -.725E-06 -.264E-12 -.539E-12

 POSITION                                       TOTAL-FORCE (eV/Angst)
      0.00000      0.00000      0.00000         0.014257      0.000000      0.000000
      5.16365      0.00000      0.00000         0.015467      0.000000      0.000000
      0.00000      5.16365      0.00000         0.000471      0.000000      0.000000
      5.16365      5.16365      0.00000         0.000474      0.000000      0.000000
      0.00000      0.00000      5.16365         0.000471      0.000000      0.000000
      5.16365      0.00000      5.16365         0.000474      0.000000      0.000000
      0.00000      5.16365      5.16365        -0.000006      0.000000      0.000000
      5.16365      5.16365      5.16365        -0.000006      0.000000      0.000000
      0.00000      2.58182      2.58182        -0.000016      0.000963      0.000963
      5.16365      2.58182      2.58182        -0.000014     -0.000962     -0.000962
      0.00000      7.74547      2.58182        -0.000016     -0.000963      0.000963
      5.16365      7.74547      2.58182        -0.000014      0.000962     -0.000962
      0.00000      2.58182      7.74547        -0.000016      0.000963     -0.000963
      5.16365      2.58182      7.74547        -0.000014     -0.000962      0.000962
      0.00000      7.74547      7.74547        -0.000016     -0.000963     -0.000963
      5.16365      7.74547      7.74547        -0.000014      0.000962      0.000962
      2.58182      0.00000      2.58182         0.002926      0.000000     -0.000038
      7.74547      0.00000      2.58182        -0.002662      0.000000      0.000000
      2.58182      5.16365      2.58182         0.000365      0.000000      0.000000
      7.74547      5.16365      2.58182        -0.000419      0.000000     -0.000001
      2.58182      0.00000      7.74547         0.002926      0.000000      0.000038
      7.74547      0.00000      7.74547        -0.002662      0.000000      0.000000
      2.58182      5.16365      7.74547         0.000365      0.000000      0.000000
      7.74547      5.16365      7.74547        -0.000419      0.000000      0.000001
      2.58182      2.58182      0.00000         0.002926     -0.000038      0.000000
      7.74547      2.58182      0.00000        -0.002662      0.000000      0.000000
      2.58182      7.74547      0.00000         0.002926      0.000038      0.000000
      7.74547      7.74547      0.00000        -0.002662      0.000000      0.000000
      2.58182      2.58182      5.16365         0.000365      0.000000      0.000000
      7.74547      2.58182      5.16365        -0.000419     -0.000001      0.000000
      2.58182      7.74547      5.16365         0.000365      0.000000      0.000000
      7.74547      7.74547      5.16365        -0.000419      0.000001      0.000000
      2.59182      0.00000      0.00000        -0.067004      0.000000      0.000000
      7.74547      0.00000      0.00000         0.002232      0.000000      0.000000
      2.58182      5.16365      0.00000        -0.001245      0.000000      0.000000
      7.74547      5.16365      0.00000         0.002923      0.000000      0.000000
      2.58182      0.00000      5.16365        -0.001245      0.000000      0.000000
      7.74547      0.00000      5.16365         0.002923      0.000000      0.000000
      2.58182      5.16365      5.16365        -0.000492      0.000000      0.000000
      7.74547      5.16365      5.16365         0.000483      0.000000      0.000000
      2.58182      2.58182      2.58182        -0.001451     -0.000003     -0.000003
      7.74547      2.58182      2.58182         0.001094      0.000000      0.000000
      2.58182      7.74547      2.58182        -0.001451      0.000003     -0.000003
      7.74547      7.74547      2.58182         0.001094      0.000000      0.000000
      2.58182      2.58182      7.74547        -0.001451     -0.000003      0.000003
      7.74547      2.58182      7.74547         0.001094      0.000000      0.000000
      2.58182      7.74547      7.74547        -0.001451      0.000003      0.000003
      7.74547      7.74547      7.74547         0.001094      0.000000      0.000000
      0.00000      0.00000      2.58182         0.003861      0.000000     -0.005837
      5.16365      0.00000      2.58182         0.003875      0.000000      0.005879
      0.00000      5.16365      2.58182        -0.000051      0.000000     -0.000547
      5.16365      5.16365      2.58182        -0.000052      0.000000      0.000549
      0.00000      0.00000      7.74547         0.003861      0.000000      0.005837
      5.16365      0.00000      7.74547         0.003875      0.000000     -0.005879
      0.00000      5.16365      7.74547        -0.000051      0.000000      0.000547
      5.16365      5.16365      7.74547        -0.000052      0.000000     -0.000549
      0.00000      2.58182      0.00000         0.003861     -0.005837      0.000000
      5.16365      2.58182      0.00000         0.003875      0.005879      0.000000
      0.00000      7.74547      0.00000         0.003861      0.005837      0.000000
      5.16365      7.74547      0.00000         0.003875     -0.005879      0.000000
      0.00000      2.58182      5.16365        -0.000051     -0.000547      0.000000
      5.16365      2.58182      5.16365        -0.000052      0.000549      0.000000
      0.00000      7.74547      5.16365        -0.000051      0.000547      0.000000
      5.16365      7.74547      5.16365        -0.000052     -0.000549      0.000000
    total drift:                               -0.000002      0.000000      0.000001

  FREE ENERGIE OF THE ION-ELECTRON SYSTEM (eV)
  free  energy   TOTEN  =      -289.78824227 eV

  energy  without entropy=     -289.78824227  energy(sigma->0) =     -289.78824227